Welcome to sphere packing routines, relation testing division.
Welcome to Section A.2.7.12.  
Enter cell count limit:  Enter slop:  		Slop = -1e-06
Starting time:  	Fri Jul  3 19:02:44 1998

Case 1:
	Gma scoring:
rhs = -0.112676983624509341
2.000000000000000000	2.510000000000000231
2.000000000000000000	2.510000000000000231
2.000000000000000000	2.510000000000000231
2.000000000000000000	2.510000000000000231
2.000000000000000000	2.510000000000000231
2.000000000000000000	2.510000000000000231

cellcount    =          2575937		maxdepth = 5
partialpushes=                0
largecut     =                0		discards     =                0
smallcut     =                0		verifycount  =          2535688
partialcount =                0		diff         =            40249
Verification succeeded.

		Boundary:
2.000000000000000000	2.510000000000000231
2.000000000000000000	2.510000000000000231
2.000000000000000000	2.510000000000000231
2.000000000000000000	2.510000000000000231
2.000000000000000000	2.510000000000000231
2.000000000000000000	2.510000000000000231

cellcount    =          2552641		maxdepth = 5
partialpushes=                0
largecut     =                0		discards     =                0
smallcut     =            38617		verifycount  =          2474139
partialcount =                0		diff         =            39885
Verification succeeded.

Case 2:
	Gma scoring:
rhs = -0.541200417393434607
2.000000000000000000	2.510000000000000231
2.000000000000000000	2.510000000000000231
2.000000000000000000	2.510000000000000231
2.000000000000000000	2.510000000000000231
2.000000000000000000	2.510000000000000231
2.000000000000000000	2.510000000000000231

cellcount    =           871041		maxdepth = 5
partialpushes=                0
largecut     =                0		discards     =                0
smallcut     =                0		verifycount  =           857431
partialcount =                0		diff         =            13610
Verification succeeded.

		Boundary:
2.000000000000000000	2.510000000000000231
2.000000000000000000	2.510000000000000231
2.000000000000000000	2.510000000000000231
2.000000000000000000	2.510000000000000231
2.000000000000000000	2.510000000000000231
2.000000000000000000	2.510000000000000231

cellcount    =           867969		maxdepth = 5
partialpushes=                0
largecut     =                0		discards     =                0
smallcut     =             4743		verifycount  =           849664
partialcount =                0		diff         =            13562
Verification succeeded.

Case 3:
	Gma scoring:
rhs = -0.112676983624509341
2.000000000000000000	2.510000000000000231
2.000000000000000000	2.510000000000000231
2.000000000000000000	2.510000000000000231
2.000000000000000000	2.510000000000000231
2.000000000000000000	2.510000000000000231
2.000000000000000000	2.510000000000000231

cellcount    =          2575425		maxdepth = 5
partialpushes=                0
largecut     =                0		discards     =                0
smallcut     =                0		verifycount  =          2535184
partialcount =                0		diff         =            40241
Verification succeeded.

		Boundary:
2.000000000000000000	2.510000000000000231
2.000000000000000000	2.510000000000000231
2.000000000000000000	2.510000000000000231
2.000000000000000000	2.510000000000000231
2.000000000000000000	2.510000000000000231
2.000000000000000000	2.510000000000000231

cellcount    =          2552385		maxdepth = 5
partialpushes=                0
largecut     =                0		discards     =                0
smallcut     =            38681		verifycount  =          2473823
partialcount =                0		diff         =            39881
Verification succeeded.

Case 4:
	Vor scoring:
rhs = -0.630788196506635090
2.000000000000000000	2.510000000000000231
2.000000000000000000	2.510000000000000231
2.000000000000000000	2.510000000000000231
2.509999999999999787	2.828427124746190291
2.000000000000000000	2.510000000000000231
2.000000000000000000	2.510000000000000231

cellcount    =          4072965		maxdepth = 7
partialpushes=           112226
largecut     =                0		discards     =                0
smallcut     =                0		verifycount  =          3592006
partialcount =           374049		diff         =           106910
Verification succeeded.

Case 5:
	Vor scoring:
rhs = -0.499560125208719175
2.000000000000000000	2.510000000000000231
2.000000000000000000	2.510000000000000231
2.000000000000000000	2.510000000000000231
2.509999999999999787	2.509999999999999787
2.000000000000000000	2.510000000000000231
2.000000000000000000	2.510000000000000231

cellcount    =                1		maxdepth = 0
partialpushes=                0
largecut     =                0		discards     =                0
smallcut     =                0		verifycount  =                1
partialcount =                0		diff         =                0
Verification succeeded.

All verifications succeeded.

Done.
Ending time:    	Fri Jul  3 20:05:51 1998

Elapsed time: 3787 seconds,		diff = -537.857
16068364 cells considered,		4243.03 cells per second


